\ Model Routes
\ LP format - for model browsing. Use MPS format to capture full model detail.
Maximize
  1398.872608001596 R{0,0} + 3503.022709467814 R{0,1}
   + 3740.127351990052 R{0,2} - 127.7762031097757 R{0,3}
   + 1183.139033773706 R{0,4} + 1214.91874382372 R{0,5}
   + 1774.58188572184 R{0,6} + 1807.191026191351 R{0,7}
   + 488.8564689573584 R{0,8} + 1791.705927992302 R{0,9}
   + 467.0703370149133 R{0,10} + 1015.50304575399 R{0,11}
   + 1299.807716313421 R{0,12} + 1426.277653713515 R{0,13}
   + 1086.323534390244 R{0,14} + 191.0377815820934 R{0,15}
   + 491.8616176230653 R{0,16} + 1070.530555981355 R{0,17}
   + 1585.415787494584 R{0,18} + 534.330208330686 R{0,19}
   + 1340.868445233552 R{0,20} + 827.8019779311981 R{0,21}
   + 977.1731992164207 R{0,22} + 1486.888578322657 R{0,23}
   + 821.0436231186903 R{0,24} + 1212.674860266206 R{0,25}
   + 1552.105527282424 R{0,26} + 1373.143723444034 R{0,27}
   + 861.4903778889683 R{0,28} + 1589.839260669089 R{0,29}
   + 1698.736983465002 R{0,30} + 1815.585286678345 R{0,31}
   + 1192.409254056267 R{0,32} + 1054.733713351249 R{0,33}
   + 691.6732750216843 R{0,34} + 741.0844798008937 R{0,35}
   + 805.2733281699338 R{0,36} + 812.8862018309455 R{0,37}
   + 1850.059486734282 R{0,38} + 1062.614880030044 R{1,0}
   + 1748.092406577835 R{1,1} + 2313.643491317199 R{1,2}
   - 200.856038906509 R{1,3} + 1990.322373864283 R{1,4}
   + 2879.402228815313 R{1,5} + 2975.08906547743 R{1,6}
   + 1459.099716355742 R{1,7} + 2185.897031695909 R{1,8}
   + 863.2075037394898 R{1,9} + 1512.193575064084 R{1,10}
   + 433.967788865059 R{1,11} + 1406.213118505481 R{1,12}
   + 2300.482124650977 R{1,13} + 1234.38149103741 R{1,14}
   + 1657.009478889209 R{1,15} + 697.0599150936594 R{1,16}
   + 1753.13886276065 R{1,17} + 1203.707700168552 R{1,18}
   + 1405.967387448914 R{1,19} + 1924.918363853621 R{1,20}
   + 1865.376236863618 R{1,21} + 2116.452416022844 R{1,22}
   + 1211.459207943379 R{1,23} + 1310.400403378677 R{1,24}
   + 1643.595854493536 R{1,25} + 1411.502154688189 R{1,26}
   + 332.4570639692354 R{2,0} + 999.0058156374657 R{2,1}
   + 1524.138546165417 R{2,2} - 133.5200660505167 R{2,3}
   - 17.72445585095399 R{2,4} + 606.038848085391 R{2,5}
   + 355.8456250441907 R{2,6} + 706.54939820333 R{2,7}
   + 118.5850798785921 R{2,8} + 297.7511216403535 R{2,9}
   + 195.9537803331226 R{2,10} + 607.9726512701175 R{2,11}
   + 563.802989122678 R{2,12} + 1284.837864519529 R{2,13}
   + 824.889638632126 R{2,14} + 982.9043713190863 R{2,15}
   + 756.0385847736505 R{2,16} + 163.9300193568837 R{2,17}
   + 756.6756993154398 R{2,18} + 748.1792509941922 R{2,19}
   + 1108.662121829459 R{2,20} + 718.9747150225382 R{2,21}
   + 1676.274037628354 R{2,22} + 1361.705825672724 R{2,23}
   + 1139.680726349314 R{2,24} + 1158.776123690251 R{3,0}
   + 1181.618104114831 R{3,1} + 1706.890166754278 R{3,2}
   - 192.385172168201 R{3,3} + 1792.906730842438 R{3,4}
   + 2122.008724722836 R{3,5} + 2306.193915244341 R{3,6}
   + 1865.611316548952 R{3,7} + 857.8129077716144 R{3,8}
   + 903.4484894074174 R{3,9} + 990.7709790252752 R{3,10}
   + 595.7078952252978 R{3,11} + 2102.055375748212 R{3,12}
   + 923.7711173447708 R{3,13} + 704.7547736011945 R{3,14}
   + 1225.839845128289 R{3,15} + 1506.112992514817 R{3,16}
   + 1194.11305664728 R{3,17} + 755.145020688369 R{3,18}
   + 1863.665964625862 R{3,19} + 744.2691628632906 R{3,20}
   + 1643.308750646582 R{3,21} + 2623.727399940358 R{3,22}
   + 784.5037727719841 R{3,23} + 751.5668578519444 R{3,24}
   + 518.1166866579541 R{3,25} + 934.5410605444051 R{3,26}
   + 909.2786773219642 R{3,27} + 1565.330556732651 R{3,28}
   + 2856.342983695984 R{3,29} + 696.8841103430324 R{3,30}
   + 728.0171138592032 R{3,31} + 2068.845682087641 R{3,32}
   + 622.5215220243829 R{3,33} + 1208.021262283662 R{3,34}
   + 681.3617121354752 R{3,35} + 720.2747004736032 R{3,36}
   + 846.4854554304152 R{3,37} + 1940.979534250213 R{3,38}
   + 796.6713993797955 R{3,39} + 840.6023026395708 R{3,40}
   + 810.4479078898565 R{3,41} + 1149.36309768157 R{3,42}
   + 1283.729031919373 R{3,43} + 962.3676530136686 R{3,44}
   + 1247.342574478131 R{3,45} + 2426.793260996316 R{3,46}
   + 1033.321162399118 R{3,47} + 681.1143299731084 R{4,0}
   + 1937.851922344408 R{4,1} + 2626.365434007818 R{4,2}
   - 110.311124685748 R{4,3} + 144.63976921588 R{4,4}
   + 660.5224243508655 R{4,5} + 912.4483616620585 R{4,6}
   + 159.0663481919698 R{4,7} + 786.3867787842635 R{4,8}
   + 88.53395737939024 R{4,9} + 389.2322422811351 R{4,10}
   + 159.1958935044179 R{4,11} + 388.6710961493225 R{4,12}
   + 1383.194590454306 R{4,13} + 328.6760456582792 R{4,14}
   + 1854.58470172128 R{4,15} + 809.7327119496495 R{4,16}
   + 1691.468322854575 R{4,17} + 779.8870993568542 R{4,18}
   + 538.8515656261261 R{4,19} + 1462.922865501421 R{4,20}
   + 787.505674856284 R{4,21} + 774.5917912634092 R{4,22}
   + 380.5966611800294 R{4,23} + 767.5915448256171 R{4,24}
   + 588.6371514254095 R{4,25} + 874.9232882471614 R{4,26}
   + 866.1327322581496 R{4,27} + 798.3823531634008 R{4,28}
   + 925.2480368243455 R{4,29} + 981.2833443933907 R{4,30}
   + 1925.506059427695 R{5,0} + 3725.62025950955 R{5,1}
   + 3947.105947091296 R{5,2} - 185.9792297999622 R{5,3}
   + 762.6575608480416 R{5,4} + 1600.947380589677 R{5,5}
   + 2464.397873244488 R{5,6} + 928.5413040268159 R{5,7}
   + 828.8585671070166 R{5,8} + 1774.51322284872 R{5,9}
   + 414.0545929108482 R{5,10} + 247.9819683897703 R{5,11}
   + 1796.552494430734 R{5,12} + 1728.6927225227 R{5,13}
   + 3394.237274413467 R{5,14} + 3517.900918686745 R{5,15}
   + 3186.854912543558 R{5,16} + 1603.957831358108 R{5,17}
   + 1977.504465708171 R{5,18} + 2324.45291387899 R{5,19}
   + 2858.813961515245 R{5,20} + 2412.501355808689 R{5,21}
   + 2541.034232745276 R{5,22} + 2939.266895613449 R{5,23}
   + 2907.241644492659 R{5,24} + 3453.96694836315 R{5,25}
   + 2626.902111311612 R{5,26} + 1114.065031741855 R{5,27}
   + 2041.640920807773 R{5,28} + 2372.462751933445 R{5,29}
   + 2186.920333041437 R{5,30} + 2204.903853475685 R{5,31}
   + 3769.420265562455 R{5,32} + 3778.561545874961 R{5,33}
   + 1863.555833660018 R{5,34} + 2171.117602505907 R{5,35}
   + 2269.228857480198 R{5,36} + 2591.144677485359 R{5,37}
   + 1520.677724485681 R{5,38} + 284.856825034505 R{6,0}
   + 285.8973374391785 R{6,1} + 995.0266735178386 R{6,2}
   - 151.6582656969574 R{6,3} + 639.5565580334659 R{6,4}
   + 1334.159068475346 R{6,5} + 287.7812111324404 R{6,6}
   + 520.6115493131599 R{6,7} + 499.1794086368567 R{6,8}
   + 624.677943848405 R{6,9} + 545.5908810857295 R{6,10}
   + 195.6692772303037 R{6,11} + 650.6129911304816 R{6,12}
   + 578.9875727928986 R{6,13} + 697.7773789240754 R{6,14}
   + 278.7124878112587 R{6,15} + 640.2649845664057 R{6,16}
   + 740.3414140954159 R{6,17} + 521.4878884442151 R{6,18}
   + 1641.713008998163 R{6,19} + 1070.390493433824 R{6,20}
   + 639.0222343101854 R{6,21} + 771.1278300840527 R{6,22}
   + 342.8866265042926 R{6,23} + 776.0828813405415 R{6,24}
   + 470.2474306765935 R{6,25} + 527.5470815729069 R{6,26}
   + 439.5685113508422 R{6,27} + 853.3869713566105 R{6,28}
   + 411.7367059858503 R{6,29} + 721.3449858076164 R{6,30}
   + 575.3864081249781 R{6,31} + 1036.604926306846 R{6,32}
   + 905.1468196552441 R{6,33}
Subject To
 R00: R{0,0} <= 1
 R01: R{0,1} <= 1
 R02: R{0,2} <= 1
 R03: R{0,3} <= 1
 R04: R{0,4} <= 1
 R05: R{0,5} <= 1
 R06: R{0,6} <= 1
 R07: R{0,7} <= 1
 R08: R{0,8} <= 1
 R09: R{0,9} <= 1
 R010: R{0,10} <= 1
 R011: R{0,11} <= 1
 R012: R{0,12} <= 1
 R013: R{0,13} <= 1
 R014: R{0,14} <= 1
 R015: R{0,15} <= 1
 R016: R{0,16} <= 1
 R017: R{0,17} <= 1
 R018: R{0,18} <= 1
 R019: R{0,19} <= 1
 R020: R{0,20} <= 1
 R021: R{0,21} <= 1
 R022: R{0,22} <= 1
 R023: R{0,23} <= 1
 R024: R{0,24} <= 1
 R025: R{0,25} <= 1
 R026: R{0,26} <= 1
 R027: R{0,27} <= 1
 R028: R{0,28} <= 1
 R029: R{0,29} <= 1
 R030: R{0,30} <= 1
 R031: R{0,31} <= 1
 R032: R{0,32} <= 1
 R033: R{0,33} <= 1
 R034: R{0,34} <= 1
 R035: R{0,35} <= 1
 R036: R{0,36} <= 1
 R037: R{0,37} <= 1
 R038: R{0,38} <= 1
 R039: R{1,0} <= 1
 R040: R{1,1} <= 1
 R041: R{1,2} <= 1
 R042: R{1,3} <= 1
 R043: R{1,4} <= 1
 R044: R{1,5} <= 1
 R045: R{1,6} <= 1
 R046: R{1,7} <= 1
 R047: R{1,8} <= 1
 R048: R{1,9} <= 1
 R049: R{1,10} <= 1
 R050: R{1,11} <= 1
 R051: R{1,12} <= 1
 R052: R{1,13} <= 1
 R053: R{1,14} <= 1
 R054: R{1,15} <= 1
 R055: R{1,16} <= 1
 R056: R{1,17} <= 1
 R057: R{1,18} <= 1
 R058: R{1,19} <= 1
 R059: R{1,20} <= 1
 R060: R{1,21} <= 1
 R061: R{1,22} <= 1
 R062: R{1,23} <= 1
 R063: R{1,24} <= 1
 R064: R{1,25} <= 1
 R065: R{1,26} <= 1
 R066: R{2,0} <= 1
 R067: R{2,1} <= 1
 R068: R{2,2} <= 1
 R069: R{2,3} <= 1
 R070: R{2,4} <= 1
 R071: R{2,5} <= 1
 R072: R{2,6} <= 1
 R073: R{2,7} <= 1
 R074: R{2,8} <= 1
 R075: R{2,9} <= 1
 R076: R{2,10} <= 1
 R077: R{2,11} <= 1
 R078: R{2,12} <= 1
 R079: R{2,13} <= 1
 R080: R{2,14} <= 1
 R081: R{2,15} <= 1
 R082: R{2,16} <= 1
 R083: R{2,17} <= 1
 R084: R{2,18} <= 1
 R085: R{2,19} <= 1
 R086: R{2,20} <= 1
 R087: R{2,21} <= 1
 R088: R{2,22} <= 1
 R089: R{2,23} <= 1
 R090: R{2,24} <= 1
 R091: R{3,0} <= 1
 R092: R{3,1} <= 1
 R093: R{3,2} <= 1
 R094: R{3,3} <= 1
 R095: R{3,4} <= 1
 R096: R{3,5} <= 1
 R097: R{3,6} <= 1
 R098: R{3,7} <= 1
 R099: R{3,8} <= 1
 R0100: R{3,9} <= 1
 R0101: R{3,10} <= 1
 R0102: R{3,11} <= 1
 R0103: R{3,12} <= 1
 R0104: R{3,13} <= 1
 R0105: R{3,14} <= 1
 R0106: R{3,15} <= 1
 R0107: R{3,16} <= 1
 R0108: R{3,17} <= 1
 R0109: R{3,18} <= 1
 R0110: R{3,19} <= 1
 R0111: R{3,20} <= 1
 R0112: R{3,21} <= 1
 R0113: R{3,22} <= 1
 R0114: R{3,23} <= 1
 R0115: R{3,24} <= 1
 R0116: R{3,25} <= 1
 R0117: R{3,26} <= 1
 R0118: R{3,27} <= 1
 R0119: R{3,28} <= 1
 R0120: R{3,29} <= 1
 R0121: R{3,30} <= 1
 R0122: R{3,31} <= 1
 R0123: R{3,32} <= 1
 R0124: R{3,33} <= 1
 R0125: R{3,34} <= 1
 R0126: R{3,35} <= 1
 R0127: R{3,36} <= 1
 R0128: R{3,37} <= 1
 R0129: R{3,38} <= 1
 R0130: R{3,39} <= 1
 R0131: R{3,40} <= 1
 R0132: R{3,41} <= 1
 R0133: R{3,42} <= 1
 R0134: R{3,43} <= 1
 R0135: R{3,44} <= 1
 R0136: R{3,45} <= 1
 R0137: R{3,46} <= 1
 R0138: R{3,47} <= 1
 R0139: R{4,0} <= 1
 R0140: R{4,1} <= 1
 R0141: R{4,2} <= 1
 R0142: R{4,3} <= 1
 R0143: R{4,4} <= 1
 R0144: R{4,5} <= 1
 R0145: R{4,6} <= 1
 R0146: R{4,7} <= 1
 R0147: R{4,8} <= 1
 R0148: R{4,9} <= 1
 R0149: R{4,10} <= 1
 R0150: R{4,11} <= 1
 R0151: R{4,12} <= 1
 R0152: R{4,13} <= 1
 R0153: R{4,14} <= 1
 R0154: R{4,15} <= 1
 R0155: R{4,16} <= 1
 R0156: R{4,17} <= 1
 R0157: R{4,18} <= 1
 R0158: R{4,19} <= 1
 R0159: R{4,20} <= 1
 R0160: R{4,21} <= 1
 R0161: R{4,22} <= 1
 R0162: R{4,23} <= 1
 R0163: R{4,24} <= 1
 R0164: R{4,25} <= 1
 R0165: R{4,26} <= 1
 R0166: R{4,27} <= 1
 R0167: R{4,28} <= 1
 R0168: R{4,29} <= 1
 R0169: R{4,30} <= 1
 R0170: R{5,0} <= 1
 R0171: R{5,1} <= 1
 R0172: R{5,2} <= 1
 R0173: R{5,3} <= 1
 R0174: R{5,4} <= 1
 R0175: R{5,5} <= 1
 R0176: R{5,6} <= 1
 R0177: R{5,7} <= 1
 R0178: R{5,8} <= 1
 R0179: R{5,9} <= 1
 R0180: R{5,10} <= 1
 R0181: R{5,11} <= 1
 R0182: R{5,12} <= 1
 R0183: R{5,13} <= 1
 R0184: R{5,14} <= 1
 R0185: R{5,15} <= 1
 R0186: R{5,16} <= 1
 R0187: R{5,17} <= 1
 R0188: R{5,18} <= 1
 R0189: R{5,19} <= 1
 R0190: R{5,20} <= 1
 R0191: R{5,21} <= 1
 R0192: R{5,22} <= 1
 R0193: R{5,23} <= 1
 R0194: R{5,24} <= 1
 R0195: R{5,25} <= 1
 R0196: R{5,26} <= 1
 R0197: R{5,27} <= 1
 R0198: R{5,28} <= 1
 R0199: R{5,29} <= 1
 R0200: R{5,30} <= 1
 R0201: R{5,31} <= 1
 R0202: R{5,32} <= 1
 R0203: R{5,33} <= 1
 R0204: R{5,34} <= 1
 R0205: R{5,35} <= 1
 R0206: R{5,36} <= 1
 R0207: R{5,37} <= 1
 R0208: R{5,38} <= 1
 R0209: R{6,0} <= 1
 R0210: R{6,1} <= 1
 R0211: R{6,2} <= 1
 R0212: R{6,3} <= 1
 R0213: R{6,4} <= 1
 R0214: R{6,5} <= 1
 R0215: R{6,6} <= 1
 R0216: R{6,7} <= 1
 R0217: R{6,8} <= 1
 R0218: R{6,9} <= 1
 R0219: R{6,10} <= 1
 R0220: R{6,11} <= 1
 R0221: R{6,12} <= 1
 R0222: R{6,13} <= 1
 R0223: R{6,14} <= 1
 R0224: R{6,15} <= 1
 R0225: R{6,16} <= 1
 R0226: R{6,17} <= 1
 R0227: R{6,18} <= 1
 R0228: R{6,19} <= 1
 R0229: R{6,20} <= 1
 R0230: R{6,21} <= 1
 R0231: R{6,22} <= 1
 R0232: R{6,23} <= 1
 R0233: R{6,24} <= 1
 R0234: R{6,25} <= 1
 R0235: R{6,26} <= 1
 R0236: R{6,27} <= 1
 R0237: R{6,28} <= 1
 R0238: R{6,29} <= 1
 R0239: R{6,30} <= 1
 R0240: R{6,31} <= 1
 R0241: R{6,32} <= 1
 R0242: R{6,33} <= 1
 R1_0: R{0,0} + R{0,1} + R{0,2} + R{0,3} + R{0,4} + R{0,5} + R{0,6}
   + R{0,7} + R{0,8} + R{0,9} + R{0,10} + R{0,11} + R{0,12} + R{0,13}
   + R{0,14} + R{0,15} + R{0,16} + R{0,17} + R{0,18} + R{0,19} + R{0,20}
   + R{0,21} + R{0,22} + R{0,23} + R{0,24} + R{0,25} + R{0,26} + R{0,27}
   + R{0,28} + R{0,29} + R{0,30} + R{0,31} + R{0,32} + R{0,33} + R{0,34}
   + R{0,35} + R{0,36} + R{0,37} + R{0,38} <= 1
 R1_1: R{1,0} + R{1,1} + R{1,2} + R{1,3} + R{1,4} + R{1,5} + R{1,6}
   + R{1,7} + R{1,8} + R{1,9} + R{1,10} + R{1,11} + R{1,12} + R{1,13}
   + R{1,14} + R{1,15} + R{1,16} + R{1,17} + R{1,18} + R{1,19} + R{1,20}
   + R{1,21} + R{1,22} + R{1,23} + R{1,24} + R{1,25} + R{1,26} <= 1
 R1_2: R{2,0} + R{2,1} + R{2,2} + R{2,3} + R{2,4} + R{2,5} + R{2,6}
   + R{2,7} + R{2,8} + R{2,9} + R{2,10} + R{2,11} + R{2,12} + R{2,13}
   + R{2,14} + R{2,15} + R{2,16} + R{2,17} + R{2,18} + R{2,19} + R{2,20}
   + R{2,21} + R{2,22} + R{2,23} + R{2,24} <= 1
 R1_3: R{3,0} + R{3,1} + R{3,2} + R{3,3} + R{3,4} + R{3,5} + R{3,6}
   + R{3,7} + R{3,8} + R{3,9} + R{3,10} + R{3,11} + R{3,12} + R{3,13}
   + R{3,14} + R{3,15} + R{3,16} + R{3,17} + R{3,18} + R{3,19} + R{3,20}
   + R{3,21} + R{3,22} + R{3,23} + R{3,24} + R{3,25} + R{3,26} + R{3,27}
   + R{3,28} + R{3,29} + R{3,30} + R{3,31} + R{3,32} + R{3,33} + R{3,34}
   + R{3,35} + R{3,36} + R{3,37} + R{3,38} + R{3,39} + R{3,40} + R{3,41}
   + R{3,42} + R{3,43} + R{3,44} + R{3,45} + R{3,46} + R{3,47} <= 1
 R1_4: R{4,0} + R{4,1} + R{4,2} + R{4,3} + R{4,4} + R{4,5} + R{4,6}
   + R{4,7} + R{4,8} + R{4,9} + R{4,10} + R{4,11} + R{4,12} + R{4,13}
   + R{4,14} + R{4,15} + R{4,16} + R{4,17} + R{4,18} + R{4,19} + R{4,20}
   + R{4,21} + R{4,22} + R{4,23} + R{4,24} + R{4,25} + R{4,26} + R{4,27}
   + R{4,28} + R{4,29} + R{4,30} <= 1
 R1_5: R{5,0} + R{5,1} + R{5,2} + R{5,3} + R{5,4} + R{5,5} + R{5,6}
   + R{5,7} + R{5,8} + R{5,9} + R{5,10} + R{5,11} + R{5,12} + R{5,13}
   + R{5,14} + R{5,15} + R{5,16} + R{5,17} + R{5,18} + R{5,19} + R{5,20}
   + R{5,21} + R{5,22} + R{5,23} + R{5,24} + R{5,25} + R{5,26} + R{5,27}
   + R{5,28} + R{5,29} + R{5,30} + R{5,31} + R{5,32} + R{5,33} + R{5,34}
   + R{5,35} + R{5,36} + R{5,37} + R{5,38} <= 1
 R1_6: R{6,0} + R{6,1} + R{6,2} + R{6,3} + R{6,4} + R{6,5} + R{6,6}
   + R{6,7} + R{6,8} + R{6,9} + R{6,10} + R{6,11} + R{6,12} + R{6,13}
   + R{6,14} + R{6,15} + R{6,16} + R{6,17} + R{6,18} + R{6,19} + R{6,20}
   + R{6,21} + R{6,22} + R{6,23} + R{6,24} + R{6,25} + R{6,26} + R{6,27}
   + R{6,28} + R{6,29} + R{6,30} + R{6,31} + R{6,32} + R{6,33} <= 1
 R2_0: 5 R{0,1} + 5 R{0,2} + 5 R{0,6} + 5 R{0,12} + 5 R{0,14} + 5 R{1,0}
   + 5 R{1,1} + 5 R{1,2} + 5 R{1,4} + 5 R{1,5} + 5 R{1,6} + 5 R{1,7}
   + 5 R{1,8} + 5 R{1,9} + 5 R{1,12} + 5 R{1,13} + 5 R{1,14} + 5 R{1,15}
   + 5 R{1,17} + 5 R{1,18} + 5 R{1,19} + 5 R{1,20} + 5 R{1,21} + 5 R{1,22}
   + 5 R{1,23} + 5 R{1,24} + 5 R{1,25} + 5 R{1,26} + 5 R{2,20} + 5 R{2,22}
   + 5 R{2,23} + 5 R{3,2} + 5 R{3,22} + 5 R{3,29} + 5 R{3,46} + 5 R{4,1}
   + 5 R{4,2} + 5 R{4,17} + 5 R{4,20} + 5 R{5,1} + 5 R{5,2} + 5 R{5,5}
   + 5 R{5,6} + 5 R{5,13} + 5 R{5,14} + 5 R{5,15} + 5 R{5,16} + 5 R{5,20}
   + 5 R{5,25} + 5 R{5,26} + 5 R{5,32} + 5 R{5,33} <= 5
 R2_1: 9 R{0,1} + 9 R{0,2} + 9 R{0,4} + 9 R{0,5} + 9 R{0,6} + 9 R{0,9}
   + 9 R{0,11} + 9 R{0,20} + 9 R{2,13} + 9 R{2,15} + 9 R{3,19} + 9 R{3,22}
   + 9 R{3,38} + 9 R{4,5} + 9 R{4,15} + 9 R{4,16} + 9 R{4,17} + 9 R{5,0}
   + 9 R{5,1} + 9 R{5,2} + 9 R{5,6} + 9 R{5,9} + 9 R{5,14} + 9 R{5,15}
   + 9 R{5,16} + 9 R{5,17} + 9 R{5,18} + 9 R{5,19} + 9 R{5,20} + 9 R{5,21}
   + 9 R{5,22} + 9 R{5,23} + 9 R{5,24} + 9 R{5,25} + 9 R{5,26} + 9 R{5,28}
   + 9 R{5,29} + 9 R{5,30} + 9 R{5,31} + 9 R{5,32} + 9 R{5,33} + 9 R{5,35}
   + 9 R{5,36} + 9 R{5,37} + 9 R{6,19} <= 9
 R2_2: <= 0
 R2_3: 5 R{0,31} + 5 R{0,32} + 5 R{0,36} + 5 R{0,37} + 5 R{1,0} + 5 R{1,1}
   + 5 R{1,2} + 5 R{1,9} + 5 R{1,11} + 5 R{1,12} + 5 R{1,13} + 5 R{1,14}
   + 5 R{1,16} + 5 R{1,19} + 5 R{1,24} + 5 R{1,25} + 5 R{1,26} + 5 R{2,24}
   + 5 R{3,5} + 5 R{3,6} + 5 R{3,12} + 5 R{3,14} + 5 R{3,15} + 5 R{3,16}
   + 5 R{3,17} + 5 R{3,19} + 5 R{3,21} + 5 R{3,22} + 5 R{3,26} + 5 R{3,29}
   + 5 R{3,34} + 5 R{3,37} + 5 R{3,38} + 5 R{3,41} + 5 R{3,45} + 5 R{3,46}
   + 5 R{3,47} + 5 R{4,4} + 5 R{4,7} + 5 R{4,11} + 5 R{4,23} + 5 R{4,24}
   + 5 R{5,12} + 5 R{5,16} + 5 R{5,19} + 5 R{5,33} + 5 R{6,11} + 5 R{6,12}
   + 5 R{6,19} + 5 R{6,20} + 5 R{6,29} + 5 R{6,30} + 5 R{6,32} <= 5
 R2_4: 13 R{0,4} + 13 R{0,5} + 13 R{0,6} + 13 R{0,11} + 13 R{1,13}
   + 13 R{4,0} + 13 R{4,1} + 13 R{4,15} + 13 R{4,19} + 13 R{4,22}
   + 13 R{4,25} + 13 R{4,26} + 13 R{4,30} <= 13
 R2_5: 5 R{0,33} + 5 R{2,0} + 5 R{2,1} + 5 R{2,4} + 5 R{2,12} + 5 R{2,17}
   + 5 R{2,19} + 5 R{2,22} + 5 R{2,23} + 5 R{2,24} + 5 R{6,19} + 5 R{6,32}
   <= 5
 R2_6: <= 0
 R2_7: 8 R{0,1} + 8 R{0,2} + 8 R{0,7} + 8 R{0,22} + 8 R{0,26} + 8 R{0,27}
   + 8 R{0,31} + 8 R{0,32} + 8 R{0,34} + 8 R{0,35} + 8 R{0,36} + 8 R{0,37}
   + 8 R{0,38} + 8 R{1,7} + 8 R{1,20} + 8 R{3,6} + 8 R{3,7} + 8 R{3,15}
   + 8 R{3,29} + 8 R{3,45} + 8 R{3,46} + 8 R{4,0} + 8 R{4,1} + 8 R{4,2}
   + 8 R{4,6} + 8 R{4,10} + 8 R{4,14} + 8 R{4,15} + 8 R{4,17} + 8 R{4,19}
   + 8 R{4,20} + 8 R{4,22} + 8 R{4,23} + 8 R{4,25} + 8 R{4,26} + 8 R{4,29}
   + 8 R{4,30} + 8 R{5,6} + 8 R{5,7} + 8 R{5,8} + 8 R{5,34} + 8 R{6,4}
   + 8 R{6,5} <= 8
 R2_8: 9 R{0,2} + 9 R{0,7} + 9 R{0,18} + 9 R{1,4} + 9 R{1,5} + 9 R{1,6}
   + 9 R{1,7} + 9 R{1,10} + 9 R{2,14} + 9 R{2,22} + 9 R{3,7} + 9 R{3,12}
   + 9 R{3,33} + 9 R{5,0} + 9 R{5,1} + 9 R{5,2} + 9 R{5,7} + 9 R{5,9}
   + 9 R{5,12} + 9 R{5,15} + 9 R{5,16} + 9 R{5,19} + 9 R{5,20} + 9 R{5,21}
   + 9 R{5,22} + 9 R{5,23} + 9 R{5,24} + 9 R{5,25} + 9 R{5,26} + 9 R{5,27}
   + 9 R{5,28} + 9 R{5,29} + 9 R{5,31} + 9 R{5,32} + 9 R{5,33} + 9 R{5,34}
   + 9 R{5,35} + 9 R{5,36} + 9 R{5,37} + 9 R{5,38} <= 9
 R2_9: 12 R{0,16} + 12 R{1,4} + 12 R{1,5} + 12 R{1,6} + 12 R{1,7}
   + 12 R{1,10} + 12 R{1,11} + 12 R{1,15} + 12 R{1,16} + 12 R{1,17}
   + 12 R{2,11} + 12 R{3,12} + 12 R{3,13} + 12 R{3,32} + 12 R{4,0}
   + 12 R{4,1} + 12 R{4,10} + 12 R{4,12} + 12 R{4,13} + 12 R{4,14}
   + 12 R{4,16} + 12 R{4,18} + 12 R{4,19} + 12 R{4,21} + 12 R{4,22}
   + 12 R{4,23} + 12 R{4,24} + 12 R{4,27} + 12 R{4,28} + 12 R{4,29}
   + 12 R{5,12} + 12 R{5,29} <= 12
 R2_10: 5 R{0,5} + 5 R{0,33} + 5 R{1,0} + 5 R{1,1} + 5 R{1,2} + 5 R{1,4}
   + 5 R{1,5} + 5 R{1,6} + 5 R{1,8} + 5 R{1,9} + 5 R{1,10} + 5 R{1,12}
   + 5 R{1,13} + 5 R{1,14} + 5 R{1,17} + 5 R{1,18} + 5 R{1,19} + 5 R{1,20}
   + 5 R{1,21} + 5 R{1,22} + 5 R{1,23} + 5 R{1,24} + 5 R{1,25} + 5 R{2,14}
   + 5 R{2,16} + 5 R{3,5} + 5 R{3,6} + 5 R{3,18} + 5 R{3,19} + 5 R{3,22}
   + 5 R{3,28} + 5 R{3,29} + 5 R{3,38} + 5 R{3,40} + 5 R{4,15} + 5 R{4,30}
   + 5 R{5,30} + 5 R{5,32} + 5 R{5,33} <= 5
 R2_11: 14 R{0,1} + 14 R{0,2} + 14 R{0,9} + 14 R{0,17} + 14 R{0,37}
   + 14 R{0,38} + 14 R{1,4} + 14 R{1,5} + 14 R{1,6} + 14 R{1,10}
   + 14 R{1,12} + 14 R{1,13} + 14 R{1,15} + 14 R{1,17} + 14 R{1,24}
   + 14 R{1,25} + 14 R{2,24} + 14 R{3,40} + 14 R{3,46} + 14 R{3,47}
   + 14 R{4,2} + 14 R{4,13} + 14 R{4,27} + 14 R{4,28} + 14 R{4,29}
   + 14 R{5,0} + 14 R{5,1} + 14 R{5,2} + 14 R{5,9} + 14 R{5,12}
   + 14 R{5,13} + 14 R{5,14} + 14 R{5,15} + 14 R{5,16} + 14 R{5,18}
   + 14 R{5,19} + 14 R{5,20} + 14 R{5,21} + 14 R{5,24} + 14 R{5,25}
   + 14 R{5,26} + 14 R{5,29} + 14 R{5,31} + 14 R{5,32} + 14 R{5,33}
   + 14 R{5,34} + 14 R{5,35} + 14 R{5,36} + 14 R{5,37} + 14 R{5,38}
   + 14 R{6,8} + 14 R{6,22} <= 14
 R2_12: 13 R{0,12} + 13 R{0,14} + 13 R{0,31} + 13 R{0,35} + 13 R{2,23}
   + 13 R{3,0} + 13 R{3,1} + 13 R{3,2} + 13 R{3,4} + 13 R{3,5} + 13 R{3,6}
   + 13 R{3,8} + 13 R{3,9} + 13 R{3,12} + 13 R{3,13} + 13 R{3,15}
   + 13 R{3,16} + 13 R{3,18} + 13 R{3,19} + 13 R{3,20} + 13 R{3,21}
   + 13 R{3,22} + 13 R{3,24} + 13 R{3,25} + 13 R{3,27} + 13 R{3,28}
   + 13 R{3,29} + 13 R{3,31} + 13 R{3,32} + 13 R{3,33} + 13 R{3,35}
   + 13 R{3,36} + 13 R{3,37} + 13 R{3,38} + 13 R{3,39} + 13 R{3,40}
   + 13 R{3,43} + 13 R{3,44} + 13 R{3,45} + 13 R{3,46} + 13 R{4,10}
   + 13 R{4,12} + 13 R{4,13} + 13 R{4,18} + 13 R{4,21} + 13 R{4,24}
   + 13 R{4,28} + 13 R{5,22} + 13 R{5,32} + 13 R{6,12} + 13 R{6,13}
   + 13 R{6,29} + 13 R{6,32} <= 13
 R2_13: 8 R{0,0} + 8 R{0,1} + 8 R{0,2} + 8 R{0,8} + 8 R{0,15} + 8 R{0,21}
   + 8 R{0,23} + 8 R{0,24} + 8 R{0,26} + 8 R{0,27} + 8 R{0,28} + 8 R{0,29}
   + 8 R{0,30} + 8 R{3,4} + 8 R{3,5} + 8 R{3,6} + 8 R{3,8} + 8 R{3,15}
   + 8 R{3,16} + 8 R{3,19} + 8 R{3,22} + 8 R{3,28} + 8 R{6,21} + 8 R{6,26}
   + 8 R{6,32} <= 8
 R2_14: <= 0
 R2_15: 12 R{0,0} + 12 R{0,1} + 12 R{0,7} + 12 R{0,8} + 12 R{0,9}
   + 12 R{0,16} + 12 R{0,18} + 12 R{0,19} + 12 R{0,21} + 12 R{0,22}
   + 12 R{0,24} + 12 R{0,25} + 12 R{0,26} + 12 R{0,27} + 12 R{0,28}
   + 12 R{0,29} + 12 R{0,30} + 12 R{0,32} + 12 R{0,35} + 12 R{0,36}
   + 12 R{0,38} + 12 R{3,5} + 12 R{3,6} + 12 R{3,8} + 12 R{3,16}
   + 12 R{3,19} + 12 R{3,38} + 12 R{4,25} + 12 R{6,4} + 12 R{6,5}
   + 12 R{6,23} <= 12
 R2_16: 5 R{0,13} + 5 R{0,19} + 5 R{0,23} + 5 R{1,13} + 5 R{2,7} + 5 R{2,9}
   + 5 R{2,11} + 5 R{2,14} + 5 R{2,15} + 5 R{2,16} + 5 R{2,18} + 5 R{2,19}
   + 5 R{2,21} + 5 R{2,22} + 5 R{2,23} + 5 R{2,24} + 5 R{3,0} + 5 R{3,1}
   + 5 R{3,2} + 5 R{3,4} + 5 R{3,5} + 5 R{3,6} + 5 R{3,7} + 5 R{3,8}
   + 5 R{3,9} + 5 R{3,10} + 5 R{3,13} + 5 R{3,15} + 5 R{3,16} + 5 R{3,19}
   + 5 R{3,20} + 5 R{3,21} + 5 R{3,22} + 5 R{3,24} + 5 R{3,28} + 5 R{3,29}
   + 5 R{3,32} + 5 R{3,33} + 5 R{3,35} + 5 R{3,38} + 5 R{3,42} + 5 R{3,43}
   + 5 R{3,45} + 5 R{4,13} + 5 R{4,18} + 5 R{5,14} <= 5
 R2_17: 11 R{0,1} + 11 R{0,2} + 11 R{0,7} + 11 R{0,9} + 11 R{0,11}
   + 11 R{0,18} + 11 R{0,19} + 11 R{0,21} + 11 R{0,22} + 11 R{0,25}
   + 11 R{0,26} + 11 R{0,27} + 11 R{0,30} + 11 R{0,31} + 11 R{0,32}
   + 11 R{0,34} + 11 R{0,35} + 11 R{0,36} + 11 R{0,38} + 11 R{1,0}
   + 11 R{1,1} + 11 R{1,2} + 11 R{1,4} + 11 R{1,5} + 11 R{1,6} + 11 R{1,7}
   + 11 R{1,10} + 11 R{1,12} + 11 R{1,13} + 11 R{1,14} + 11 R{1,16}
   + 11 R{1,17} + 11 R{1,18} + 11 R{1,19} + 11 R{1,21} + 11 R{1,23}
   + 11 R{1,24} + 11 R{1,25} + 11 R{1,26} + 11 R{3,13} + 11 R{3,46}
   + 11 R{4,13} + 11 R{4,18} + 11 R{4,21} + 11 R{4,24} + 11 R{4,26}
   + 11 R{4,27} + 11 R{4,28} + 11 R{4,29} + 11 R{4,30} + 11 R{5,6}
   + 11 R{5,18} + 11 R{5,21} + 11 R{5,37} + 11 R{5,38} + 11 R{6,10}
   + 11 R{6,12} + 11 R{6,13} + 11 R{6,27} + 11 R{6,30} + 11 R{6,31}
   + 11 R{6,32} <= 11
 R2_18: 6 R{0,1} + 6 R{0,2} + 6 R{0,11} + 6 R{0,18} + 6 R{0,22} + 6 R{0,38}
   + 6 R{1,4} + 6 R{1,5} + 6 R{1,6} + 6 R{1,13} + 6 R{1,15} + 6 R{1,20}
   + 6 R{3,11} + 6 R{3,14} + 6 R{3,23} + 6 R{4,9} + 6 R{4,19} + 6 R{5,0}
   + 6 R{5,1} + 6 R{5,2} + 6 R{5,5} + 6 R{5,11} + 6 R{5,12} + 6 R{5,13}
   + 6 R{5,14} + 6 R{5,15} + 6 R{5,17} + 6 R{5,19} + 6 R{5,20} + 6 R{5,21}
   + 6 R{5,23} + 6 R{5,24} + 6 R{5,27} + 6 R{5,29} + 6 R{5,30} + 6 R{5,33}
   + 6 R{5,37} + 6 R{5,38} + 6 R{6,32} <= 6
 R2_19: 8 R{1,5} + 8 R{1,6} + 8 R{1,21} + 8 R{2,13} + 8 R{3,0} + 8 R{3,1}
   + 8 R{3,2} + 8 R{3,4} + 8 R{3,5} + 8 R{3,6} + 8 R{3,12} + 8 R{3,17}
   + 8 R{3,19} + 8 R{3,22} + 8 R{3,28} + 8 R{3,29} + 8 R{3,32} + 8 R{3,38}
   + 8 R{3,42} + 8 R{3,46} + 8 R{5,1} + 8 R{5,2} + 8 R{5,12} + 8 R{5,14}
   + 8 R{5,15} + 8 R{5,16} + 8 R{5,18} + 8 R{5,19} + 8 R{5,22} + 8 R{5,23}
   + 8 R{5,24} + 8 R{5,25} + 8 R{5,28} + 8 R{5,29} + 8 R{5,31} + 8 R{5,32}
   + 8 R{5,33} + 8 R{5,34} + 8 R{5,35} + 8 R{5,36} + 8 R{5,37} <= 8
 R2_20: 10 R{0,0} + 10 R{0,1} + 10 R{0,2} + 10 R{0,7} + 10 R{0,13}
   + 10 R{0,18} + 10 R{0,23} + 10 R{0,25} + 10 R{0,26} + 10 R{0,27}
   + 10 R{0,28} + 10 R{0,29} + 10 R{0,30} + 10 R{0,31} + 10 R{0,32}
   + 10 R{0,33} + 10 R{0,38} + 10 R{1,2} + 10 R{2,2} + 10 R{3,4}
   + 10 R{3,5} + 10 R{3,6} + 10 R{3,7} + 10 R{3,16} + 10 R{3,21}
   + 10 R{3,29} + 10 R{3,34} + 10 R{4,2} + 10 R{5,20} + 10 R{5,21}
   + 10 R{5,26} <= 10
 R2_21: 8 R{0,7} + 8 R{0,19} + 8 R{0,26} + 8 R{1,4} + 8 R{1,5} + 8 R{1,6}
   + 8 R{1,7} + 8 R{1,8} + 8 R{1,12} + 8 R{1,15} + 8 R{1,17} + 8 R{1,20}
   + 8 R{1,25} + 8 R{3,8} + 8 R{5,0} + 8 R{5,1} + 8 R{5,2} + 8 R{5,9}
   + 8 R{5,13} + 8 R{5,14} + 8 R{5,17} + 8 R{5,18} + 8 R{5,20} + 8 R{5,23}
   + 8 R{5,24} + 8 R{5,28} + 8 R{5,30} + 8 R{5,31} + 8 R{5,33} + 8 R{5,34}
   + 8 R{5,35} + 8 R{5,36} + 8 R{5,38} + 8 R{6,19} <= 8
 R2_22: 11 R{0,9} + 11 R{0,14} + 11 R{0,15} + 11 R{0,21} + 11 R{0,28}
   + 11 R{1,15} + 11 R{1,16} + 11 R{1,20} + 11 R{1,21} + 11 R{2,0}
   + 11 R{2,1} + 11 R{2,2} + 11 R{2,7} + 11 R{2,12} + 11 R{2,13}
   + 11 R{2,15} + 11 R{2,19} + 11 R{2,20} + 11 R{2,22} + 11 R{2,23}
   + 11 R{2,24} + 11 R{3,4} + 11 R{3,5} + 11 R{3,6} + 11 R{3,15}
   + 11 R{3,16} + 11 R{3,19} + 11 R{3,21} + 11 R{3,22} + 11 R{3,28}
   + 11 R{3,29} + 11 R{3,33} + 11 R{3,38} + 11 R{3,45} + 11 R{3,46}
   + 11 R{4,13} + 11 R{4,24} + 11 R{5,19} + 11 R{6,15} + 11 R{6,25}
   + 11 R{6,26} + 11 R{6,29} + 11 R{6,32} <= 11
 R2_23: 14 R{0,25} + 14 R{0,34} + 14 R{1,0} + 14 R{1,1} + 14 R{1,2}
   + 14 R{1,8} + 14 R{1,11} + 14 R{1,14} + 14 R{1,16} + 14 R{1,18}
   + 14 R{1,19} + 14 R{1,20} + 14 R{1,21} + 14 R{1,23} + 14 R{1,26}
   + 14 R{2,16} + 14 R{2,18} + 14 R{3,4} + 14 R{3,5} + 14 R{3,6}
   + 14 R{3,8} + 14 R{3,12} + 14 R{3,13} + 14 R{3,15} + 14 R{3,16}
   + 14 R{3,21} + 14 R{3,22} + 14 R{3,28} + 14 R{3,29} + 14 R{3,32}
   + 14 R{3,38} + 14 R{3,43} + 14 R{3,45} + 14 R{5,8} + 14 R{5,11}
   + 14 R{5,17} + 14 R{5,30} + 14 R{6,18} + 14 R{6,19} + 14 R{6,20}
   + 14 R{6,30} + 14 R{6,33} <= 14
 R2_24: 7 R{0,32} + 7 R{0,36} + 7 R{0,37} + 7 R{1,13} + 7 R{1,20}
   + 7 R{1,25} + 7 R{3,0} + 7 R{3,1} + 7 R{3,2} + 7 R{3,4} + 7 R{3,5}
   + 7 R{3,7} + 7 R{3,8} + 7 R{3,10} + 7 R{3,11} + 7 R{3,12} + 7 R{3,13}
   + 7 R{3,14} + 7 R{3,17} + 7 R{3,18} + 7 R{3,19} + 7 R{3,21} + 7 R{3,22}
   + 7 R{3,23} + 7 R{3,25} + 7 R{3,26} + 7 R{3,27} + 7 R{3,28} + 7 R{3,30}
   + 7 R{3,31} + 7 R{3,32} + 7 R{3,33} + 7 R{3,34} + 7 R{3,35} + 7 R{3,36}
   + 7 R{3,37} + 7 R{3,38} + 7 R{3,39} + 7 R{3,40} + 7 R{3,41} + 7 R{3,42}
   + 7 R{3,43} + 7 R{3,44} + 7 R{3,46} + 7 R{3,47} + 7 R{4,14} + 7 R{4,27}
   + 7 R{5,26} + 7 R{5,30} + 7 R{5,35} + 7 R{5,36} + 7 R{6,19} <= 7
 R2_25: 12 R{0,14} + 12 R{0,17} + 12 R{1,8} + 12 R{2,10} + 12 R{4,18}
   + 12 R{4,21} + 12 R{4,27} + 12 R{4,28} + 12 R{4,29} + 12 R{5,12}
   + 12 R{5,15} + 12 R{5,16} + 12 R{5,19} + 12 R{5,21} + 12 R{5,22}
   + 12 R{5,24} + 12 R{5,25} + 12 R{5,32} + 12 R{5,33} + 12 R{5,37}
   + 12 R{6,0} + 12 R{6,1} + 12 R{6,2} + 12 R{6,4} + 12 R{6,5} + 12 R{6,7}
   + 12 R{6,10} + 12 R{6,11} + 12 R{6,15} + 12 R{6,17} + 12 R{6,18}
   + 12 R{6,19} + 12 R{6,20} + 12 R{6,21} + 12 R{6,22} + 12 R{6,23}
   + 12 R{6,25} + 12 R{6,26} + 12 R{6,30} <= 12
 R2_26: 6 R{0,24} + 6 R{1,8} + 6 R{1,13} + 6 R{1,15} + 6 R{1,17}
   + 6 R{1,19} + 6 R{1,20} + 6 R{1,22} + 6 R{1,23} + 6 R{3,28} + 6 R{3,32}
   + 6 R{3,37} + 6 R{4,4} + 6 R{4,5} + 6 R{4,7} + 6 R{4,11} + 6 R{4,20}
   + 6 R{5,22} + 6 R{5,23} + 6 R{5,25} + 6 R{5,26} + 6 R{5,30} + 6 R{5,32}
   + 6 R{5,34} + 6 R{6,0} + 6 R{6,1} + 6 R{6,2} + 6 R{6,7} + 6 R{6,8}
   + 6 R{6,10} + 6 R{6,13} + 6 R{6,14} + 6 R{6,16} + 6 R{6,17} + 6 R{6,18}
   + 6 R{6,19} + 6 R{6,20} + 6 R{6,21} + 6 R{6,22} + 6 R{6,23} + 6 R{6,24}
   + 6 R{6,26} + 6 R{6,27} + 6 R{6,28} + 6 R{6,29} + 6 R{6,30} + 6 R{6,31}
   + 6 R{6,32} + 6 R{6,33} <= 6
 R2_27: <= 0
 R2_28: 7 R{0,10} + 7 R{0,22} + 7 R{0,35} + 7 R{1,14} + 7 R{1,17}
   + 7 R{1,18} + 7 R{1,24} + 7 R{1,25} + 7 R{2,0} + 7 R{2,1} + 7 R{2,2}
   + 7 R{2,7} + 7 R{2,8} + 7 R{2,9} + 7 R{2,10} + 7 R{2,12} + 7 R{2,13}
   + 7 R{2,15} + 7 R{2,17} + 7 R{2,19} + 7 R{2,20} + 7 R{2,22} + 7 R{2,23}
   + 7 R{2,24} + 7 R{3,10} + 7 R{3,15} + 7 R{3,24} + 7 R{3,26} + 7 R{3,27}
   + 7 R{3,31} + 7 R{3,43} + 7 R{3,44} + 7 R{4,12} + 7 R{4,13} + 7 R{4,16}
   + 7 R{4,21} + 7 R{5,4} + 7 R{5,5} + 7 R{6,9} + 7 R{6,22} + 7 R{6,24}
   + 7 R{6,31} <= 7
 R2_29: <= 0
 R2_30: <= 0
 R2_31: 5 R{0,9} + 5 R{0,21} + 5 R{1,5} + 5 R{1,6} + 5 R{1,8} + 5 R{1,9}
   + 5 R{1,10} + 5 R{1,22} + 5 R{2,7} + 5 R{3,9} + 5 R{4,0} + 5 R{4,1}
   + 5 R{4,2} + 5 R{4,6} + 5 R{4,8} + 5 R{4,17} + 5 R{4,20} + 5 R{4,22}
   + 5 R{4,25} + 5 R{4,26} + 5 R{4,30} + 5 R{5,2} + 5 R{5,6} + 5 R{5,8}
   + 5 R{5,9} + 5 R{5,13} + 5 R{5,23} + 5 R{5,24} + 5 R{6,4} + 5 R{6,5}
   <= 5
 R2_32: 10 R{0,27} + 10 R{1,13} + 10 R{1,18} + 10 R{2,0} + 10 R{2,1}
   + 10 R{2,2} + 10 R{2,4} + 10 R{2,5} + 10 R{2,6} + 10 R{2,8} + 10 R{2,9}
   + 10 R{2,12} + 10 R{2,17} + 10 R{2,19} + 10 R{2,22} + 10 R{2,24}
   + 10 R{3,5} + 10 R{3,6} + 10 R{3,8} + 10 R{3,12} + 10 R{3,26}
   + 10 R{3,27} + 10 R{3,28} + 10 R{3,29} + 10 R{3,32} + 10 R{3,34}
   + 10 R{3,37} + 10 R{3,43} + 10 R{3,46} <= 10
 R2_33: 12 R{0,4} + 12 R{0,5} + 12 R{0,6} + 12 R{0,10} + 12 R{0,12}
   + 12 R{0,16} + 12 R{0,17} + 12 R{0,20} + 12 R{0,33} + 12 R{1,22}
   + 12 R{2,11} + 12 R{2,14} + 12 R{2,16} + 12 R{2,18} + 12 R{2,21}
   + 12 R{3,0} + 12 R{3,1} + 12 R{3,2} + 12 R{3,7} + 12 R{3,9} + 12 R{3,10}
   + 12 R{3,11} + 12 R{3,12} + 12 R{3,14} + 12 R{3,17} + 12 R{3,18}
   + 12 R{3,20} + 12 R{3,23} + 12 R{3,24} + 12 R{3,25} + 12 R{3,26}
   + 12 R{3,27} + 12 R{3,30} + 12 R{3,31} + 12 R{3,32} + 12 R{3,34}
   + 12 R{3,35} + 12 R{3,36} + 12 R{3,37} + 12 R{3,39} + 12 R{3,40}
   + 12 R{3,41} + 12 R{3,42} + 12 R{3,43} + 12 R{3,44} + 12 R{3,47}
   + 12 R{4,6} + 12 R{4,8} + 12 R{5,7} + 12 R{5,10} + 12 R{5,17}
   + 12 R{5,23} + 12 R{5,27} + 12 R{5,30} + 12 R{6,6} + 12 R{6,9}
   + 12 R{6,14} + 12 R{6,16} + 12 R{6,17} + 12 R{6,20} + 12 R{6,21}
   + 12 R{6,24} + 12 R{6,28} + 12 R{6,33} <= 12
 R2_34: <= 0
 R2_35: 15 R{0,17} + 15 R{2,18} + 15 R{2,21} + 15 R{3,0} + 15 R{3,1}
   + 15 R{3,4} + 15 R{3,5} + 15 R{3,6} + 15 R{3,7} + 15 R{3,9} + 15 R{3,10}
   + 15 R{3,11} + 15 R{3,12} + 15 R{3,13} + 15 R{3,14} + 15 R{3,15}
   + 15 R{3,16} + 15 R{3,17} + 15 R{3,18} + 15 R{3,19} + 15 R{3,20}
   + 15 R{3,21} + 15 R{3,23} + 15 R{3,24} + 15 R{3,25} + 15 R{3,26}
   + 15 R{3,27} + 15 R{3,28} + 15 R{3,30} + 15 R{3,31} + 15 R{3,32}
   + 15 R{3,33} + 15 R{3,34} + 15 R{3,35} + 15 R{3,36} + 15 R{3,37}
   + 15 R{3,38} + 15 R{3,39} + 15 R{3,40} + 15 R{3,41} + 15 R{3,42}
   + 15 R{3,43} + 15 R{3,44} + 15 R{3,45} + 15 R{3,47} + 15 R{5,30}
   + 15 R{6,33} <= 15
 R2_36: <= 0
 R2_37: 6 R{0,8} + 6 R{0,36} + 6 R{0,37} + 6 R{1,4} + 6 R{1,5} + 6 R{1,6}
   + 6 R{1,8} + 6 R{1,10} + 6 R{1,13} + 6 R{1,21} + 6 R{1,22} + 6 R{2,6}
   + 6 R{2,20} + 6 R{2,21} + 6 R{3,30} + 6 R{3,36} + 6 R{3,39} + 6 R{3,41}
   + 6 R{3,45} + 6 R{3,47} + 6 R{5,0} + 6 R{5,1} + 6 R{5,2} + 6 R{5,14}
   + 6 R{5,15} + 6 R{5,18} + 6 R{5,23} + 6 R{5,24} + 6 R{5,25} + 6 R{5,27}
   + 6 R{5,28} + 6 R{5,29} + 6 R{5,30} + 6 R{5,31} + 6 R{5,32} + 6 R{5,34}
   + 6 R{5,35} + 6 R{5,36} + 6 R{5,37} + 6 R{5,38} + 6 R{6,25} <= 6
 R2_38: 8 R{0,20} + 8 R{0,27} + 8 R{0,34} + 8 R{2,20} + 8 R{3,10}
   + 8 R{3,12} + 8 R{3,20} + 8 R{3,32} + 8 R{3,43} + 8 R{4,8} + 8 R{4,13}
   + 8 R{4,18} + 8 R{4,21} + 8 R{4,24} + 8 R{4,26} + 8 R{4,27} + 8 R{6,0}
   + 8 R{6,1} + 8 R{6,2} + 8 R{6,4} + 8 R{6,5} + 8 R{6,7} + 8 R{6,8}
   + 8 R{6,10} + 8 R{6,11} + 8 R{6,12} + 8 R{6,15} + 8 R{6,16} + 8 R{6,17}
   + 8 R{6,18} + 8 R{6,19} + 8 R{6,20} + 8 R{6,22} + 8 R{6,23} + 8 R{6,24}
   + 8 R{6,25} + 8 R{6,26} + 8 R{6,27} + 8 R{6,28} + 8 R{6,31} + 8 R{6,32}
   + 8 R{6,33} <= 8
 R2_39: <= 0
 R2_40: 14 R{0,0} + 14 R{0,1} + 14 R{0,2} + 14 R{0,4} + 14 R{0,5}
   + 14 R{0,6} + 14 R{0,7} + 14 R{0,8} + 14 R{0,9} + 14 R{0,11}
   + 14 R{0,12} + 14 R{0,13} + 14 R{0,15} + 14 R{0,17} + 14 R{0,18}
   + 14 R{0,20} + 14 R{0,21} + 14 R{0,22} + 14 R{0,23} + 14 R{0,26}
   + 14 R{0,27} + 14 R{0,28} + 14 R{0,29} + 14 R{0,33} + 14 R{0,38}
   + 14 R{1,12} + 14 R{1,13} + 14 R{2,10} + 14 R{3,23} + 14 R{4,12}
   + 14 R{4,13} + 14 R{4,22} <= 14
 R2_41: 5 R{0,0} + 5 R{0,1} + 5 R{0,2} + 5 R{0,13} + 5 R{0,23} + 5 R{0,24}
   + 5 R{0,29} + 5 R{0,30} + 5 R{0,31} + 5 R{1,1} + 5 R{1,2} + 5 R{2,1}
   + 5 R{2,2} + 5 R{2,5} + 5 R{4,1} + 5 R{4,2} + 5 R{4,15} + 5 R{5,1}
   + 5 R{5,2} + 5 R{5,4} + 5 R{5,5} + 5 R{5,6} + 5 R{5,14} + 5 R{5,15}
   + 5 R{5,16} + 5 R{5,22} + 5 R{5,25} + 5 R{5,32} + 5 R{5,33} + 5 R{6,2}
   + 5 R{6,5} <= 5
 R2_42: 4 R{0,22} + 4 R{0,35} + 4 R{1,6} + 4 R{1,8} + 4 R{1,15} + 4 R{1,17}
   + 4 R{1,22} + 4 R{1,23} + 4 R{1,25} + 4 R{3,16} + 4 R{3,23} + 4 R{3,30}
   + 4 R{3,31} + 4 R{3,38} + 4 R{3,39} + 4 R{3,41} + 4 R{3,42} + 4 R{3,44}
   + 4 R{5,0} + 4 R{5,1} + 4 R{5,4} + 4 R{5,5} + 4 R{5,7} + 4 R{5,9}
   + 4 R{5,12} + 4 R{5,17} + 4 R{5,19} + 4 R{5,20} + 4 R{5,21} + 4 R{5,24}
   + 4 R{5,26} + 4 R{5,27} + 4 R{5,28} + 4 R{5,29} + 4 R{5,30} + 4 R{5,31}
   + 4 R{5,33} + 4 R{5,36} + 4 R{5,37} + 4 R{5,38} <= 4
 R2_43: <= 0
 R2_44: 12 R{0,32} + 12 R{0,36} + 12 R{0,37} + 12 R{1,23} + 12 R{3,5}
   + 12 R{3,6} + 12 R{3,15} + 12 R{3,19} + 12 R{3,28} + 12 R{3,29}
   + 12 R{3,45} + 12 R{4,25} + 12 R{5,0} + 12 R{5,1} + 12 R{5,2}
   + 12 R{5,4} + 12 R{5,5} + 12 R{5,7} + 12 R{5,9} + 12 R{5,13}
   + 12 R{5,14} + 12 R{5,15} + 12 R{5,16} + 12 R{5,20} + 12 R{5,21}
   + 12 R{5,23} + 12 R{5,24} + 12 R{5,25} + 12 R{5,26} + 12 R{5,28}
   + 12 R{5,29} + 12 R{5,30} + 12 R{5,31} + 12 R{5,33} + 12 R{5,34}
   + 12 R{5,35} + 12 R{5,36} + 12 R{5,37} + 12 R{5,38} <= 12
 R2_45: 6 R{0,4} + 6 R{0,5} + 6 R{0,6} + 6 R{0,7} + 6 R{0,8} + 6 R{0,12}
   + 6 R{0,14} + 6 R{0,17} + 6 R{0,18} + 6 R{0,20} + 6 R{0,25} + 6 R{0,26}
   + 6 R{0,38} + 6 R{1,8} + 6 R{1,22} + 6 R{1,26} + 6 R{2,6} + 6 R{2,12}
   + 6 R{2,19} + 6 R{2,22} + 6 R{2,23} + 6 R{2,24} + 6 R{3,7} + 6 R{3,18}
   + 6 R{3,21} + 6 R{3,44} + 6 R{4,15} + 6 R{4,20} + 6 R{4,30} + 6 R{5,8}
   + 6 R{5,32} + 6 R{6,7} + 6 R{6,12} + 6 R{6,13} + 6 R{6,14} + 6 R{6,19}
   + 6 R{6,28} <= 6
 R2_46: 6 R{0,9} + 6 R{0,29} + 6 R{0,30} + 6 R{1,8} + 6 R{1,10} + 6 R{1,11}
   + 6 R{1,13} + 6 R{1,19} + 6 R{1,20} + 6 R{1,22} + 6 R{1,26} + 6 R{3,4}
   + 6 R{3,5} + 6 R{3,6} + 6 R{3,8} + 6 R{3,10} + 6 R{3,12} + 6 R{3,13}
   + 6 R{3,15} + 6 R{3,16} + 6 R{3,17} + 6 R{3,19} + 6 R{3,21} + 6 R{3,22}
   + 6 R{3,26} + 6 R{3,27} + 6 R{3,28} + 6 R{3,29} + 6 R{3,32} + 6 R{3,45}
   + 6 R{3,46} + 6 R{4,15} + 6 R{5,10} + 6 R{5,12} + 6 R{5,13} + 6 R{5,22}
   + 6 R{5,28} + 6 R{6,9} <= 6
Bounds
End
